30	100	100	100
11	13	100
31	11	100
72	4	100
53	14	100
65	46	100
31	79	100
33	99	100
6	55	100
10	37	100
71	6	100
79	44	100
27	51	100
92	54	100
68	32	100
42	67	100
11	54	100
3	3	100
77	39	100
68	31	100
30	51	100
39	4	100
45	95	100
14	27	100
5	7	100
66	1	100
71	54	100
42	34	100
90	9	100
20	96	100
44	79	100
